objective value:                      2.2587358487044
x(0,2,0)                                            1 	(obj:0)
x(1,10,0)                                           1 	(obj:0)
x(2,4,0)                                            1 	(obj:0)
x(3,1,0)                                            1 	(obj:0)
x(4,3,0)                                            1 	(obj:0)
x(10,0,0)                                           1 	(obj:0)
xc(0,9)                                             1 	(obj:0)
xc(1,0)                                             1 	(obj:0)
xc(3,10)                                            1 	(obj:0)
xc(4,14)                                            1 	(obj:0)
u(1,0)                                2.1776597173725 	(obj:0)
u(2,0)                              0.327317140563201 	(obj:0)
u(3,0)                                1.8931093640321 	(obj:0)
u(4,0)                                1.0452707908903 	(obj:0)
u(10,0)                               2.2587358487044 	(obj:0)
u(11,0)                               2.2587358487044 	(obj:0)
u(12,0)                               2.2587358487044 	(obj:0)
u(13,0)                               2.2587358487044 	(obj:0)
u(14,0)                               2.2587358487044 	(obj:0)
u(15,0)                               2.2587358487044 	(obj:0)
u(16,0)                               2.2587358487044 	(obj:0)
u(17,0)                               2.2587358487044 	(obj:0)
u(18,0)                               2.2587358487044 	(obj:0)
u(19,0)                               2.2587358487044 	(obj:0)
f(0,2,0)                                            1 	(obj:0)
f(0,2,1)                                            1 	(obj:0)
f(0,9,0)                                            1 	(obj:0)
f(0,9,1)                                            1 	(obj:0)
f(0,9,2)                                            1 	(obj:0)
f(0,9,3)                                            1 	(obj:0)
f(0,9,4)                                            1 	(obj:0)
f(1,0,1)                                            1 	(obj:0)
f(1,0,2)                                            1 	(obj:0)
f(1,10,1)                                           1 	(obj:0)
f(1,10,3)                                           1 	(obj:0)
f(1,10,4)                                           1 	(obj:0)
f(2,4,0)                                            1 	(obj:0)
f(2,4,1)                                            1 	(obj:0)
f(2,4,2)                                            1 	(obj:0)
f(3,1,1)                                            1 	(obj:0)
f(3,1,2)                                            1 	(obj:0)
f(3,1,3)                                            1 	(obj:0)
f(3,1,4)                                            1 	(obj:0)
f(3,10,0)                                           1 	(obj:0)
f(4,3,0)                                            1 	(obj:0)
f(4,3,1)                                            1 	(obj:0)
f(4,3,2)                                            1 	(obj:0)
f(4,3,4)                                            1 	(obj:0)
f(10,0,0)                                           1 	(obj:0)
f(10,0,1)                                           1 	(obj:0)
f(10,0,3)                                           1 	(obj:0)
f(10,0,4)                                           1 	(obj:0)
z_r(0,)                               2.2587358487044 	(obj:0)
z                                     2.2587358487044 	(obj:1)
